param n := 120;
param c := 1500
param : V : p w :=
   0	  39	  29
   1	  36	  26
   2	  93	  83
   3	  92	  82
   4	 102	  92
   5	 105	  95
   6	  97	  87
   7	  73	  63
   8	  67	  57
   9	 110	 100
  10	  73	  63
  11	  75	  65
  12	  91	  81
  13	  56	  46
  14	  52	  42
  15	 105	  95
  16	 100	  90
  17	  90	  80
  18	  63	  53
  19	  37	  27
  20	  94	  84
  21	  50	  40
  22	  32	  22
  23	 107	  97
  24	  30	  20
  25	  83	  73
  26	  73	  63
  27	 105	  95
  28	  56	  46
  29	  52	  42
  30	  57	  47
  31	  50	  40
  32	  36	  26
  33	  98	  88
  34	  59	  49
  35	  34	  24
  36	 102	  92
  37	  97	  87
  38	  78	  68
  39	 105	  95
  40	  44	  34
  41	  92	  82
  42	  94	  84
  43	  53	  43
  44	  64	  54
  45	  83	  73
  46	  76	  66
  47	  42	  32
  48	  72	  62
  49	  58	  48
  50	 109	  99
  51	 100	  90
  52	  96	  86
  53	  38	  28
  54	  35	  25
  55	  35	  25
  56	  99	  89
  57	  77	  67
  58	 106	  96
  59	  45	  35
  60	  43	  33
  61	  80	  70
  62	  50	  40
  63	  69	  59
  64	  42	  32
  65	 104	  94
  66	  44	  34
  67	  96	  86
  68	  45	  35
  69	  55	  45
  70	  35	  25
  71	  86	  76
  72	  90	  80
  73	  52	  42
  74	 101	  91
  75	  54	  44
  76	 101	  91
  77	 107	  97
  78	  70	  60
  79	  39	  29
  80	  55	  45
  81	  47	  37
  82	  71	  61
  83	  64	  54
  84	  88	  78
  85	  66	  56
  86	  84	  74
  87	  84	  74
  88	  55	  45
  89	  31	  21
  90	 106	  96
  91	  47	  37
  92	  85	  75
  93	 110	 100
  94	  68	  58
  95	  94	  84
  96	  95	  85
  97	  66	  56
  98	  64	  54
  99	  81	  71
 100	  62	  52
 101	  89	  79
 102	  53	  43
 103	  45	  35
 104	  37	  27
 105	  80	  70
 106	  41	  31
 107	  57	  47
 108	  45	  35
 109	  36	  26
 110	  40	  30
 111	 107	  97
 112	 100	  90
 113	  90	  80
 114	  68	  58
 115	  70	  60
 116	  83	  73
 117	  56	  46
 118	  81	  71
 119	  49	  39
;

set E :=
   0	   1
   0	   2
   0	   5
   0	   6
   0	   8
   0	  12
   0	  13
   0	  15
   0	  16
   0	  19
   0	  21
   0	  22
   0	  26
   0	  27
   0	  30
   0	  34
   0	  35
   0	  39
   0	  46
   0	  47
   0	  52
   0	  53
   0	  55
   0	  56
   0	  58
   0	  59
   0	  60
   0	  61
   0	  62
   0	  64
   0	  68
   0	  70
   0	  71
   0	  72
   0	  74
   0	  76
   0	  77
   0	  78
   0	  79
   0	  82
   0	  85
   0	  86
   0	  90
   0	  95
   0	  98
   0	  99
   0	 100
   0	 101
   0	 103
   0	 104
   0	 105
   0	 107
   0	 109
   0	 112
   0	 116
   0	 118
   0	 119
   1	   3
   1	   5
   1	  12
   1	  17
   1	  18
   1	  19
   1	  20
   1	  26
   1	  33
   1	  35
   1	  36
   1	  39
   1	  40
   1	  43
   1	  44
   1	  45
   1	  48
   1	  52
   1	  55
   1	  56
   1	  58
   1	  59
   1	  60
   1	  61
   1	  67
   1	  68
   1	  69
   1	  70
   1	  71
   1	  74
   1	  75
   1	  77
   1	  83
   1	  85
   1	  88
   1	  89
   1	  90
   1	  92
   1	  96
   1	  97
   1	  99
   1	 100
   1	 101
   1	 104
   1	 107
   1	 109
   1	 111
   1	 113
   1	 115
   1	 116
   1	 117
   1	 118
   2	   3
   2	   4
   2	   5
   2	   6
   2	   7
   2	   8
   2	  11
   2	  12
   2	  17
   2	  18
   2	  21
   2	  23
   2	  24
   2	  25
   2	  26
   2	  27
   2	  28
   2	  29
   2	  30
   2	  37
   2	  39
   2	  44
   2	  46
   2	  49
   2	  52
   2	  54
   2	  58
   2	  59
   2	  61
   2	  62
   2	  64
   2	  69
   2	  72
   2	  76
   2	  77
   2	  79
   2	  86
   2	  87
   2	  89
   2	  92
   2	  95
   2	 100
   2	 107
   2	 111
   2	 114
   2	 115
   2	 116
   2	 118
   3	   5
   3	  10
   3	  11
   3	  12
   3	  14
   3	  15
   3	  23
   3	  29
   3	  31
   3	  36
   3	  38
   3	  40
   3	  42
   3	  43
   3	  47
   3	  48
   3	  50
   3	  51
   3	  54
   3	  58
   3	  59
   3	  60
   3	  62
   3	  68
   3	  70
   3	  72
   3	  73
   3	  75
   3	  76
   3	  82
   3	  84
   3	  85
   3	  88
   3	  95
   3	  97
   3	  98
   3	 103
   3	 108
   3	 109
   3	 110
   3	 111
   3	 114
   3	 117
   3	 119
   4	  10
   4	  11
   4	  12
   4	  14
   4	  16
   4	  21
   4	  24
   4	  26
   4	  28
   4	  29
   4	  33
   4	  35
   4	  36
   4	  44
   4	  47
   4	  51
   4	  63
   4	  65
   4	  66
   4	  70
   4	  72
   4	  76
   4	  78
   4	  79
   4	  82
   4	  83
   4	  84
   4	  86
   4	  87
   4	  88
   4	  91
   4	  92
   4	  94
   4	  95
   4	 100
   4	 107
   4	 109
   4	 110
   4	 114
   4	 118
   4	 119
   5	   8
   5	  11
   5	  12
   5	  14
   5	  19
   5	  20
   5	  22
   5	  23
   5	  25
   5	  27
   5	  29
   5	  31
   5	  32
   5	  33
   5	  35
   5	  38
   5	  44
   5	  45
   5	  46
   5	  48
   5	  49
   5	  55
   5	  58
   5	  61
   5	  63
   5	  66
   5	  70
   5	  72
   5	  74
   5	  75
   5	  77
   5	  78
   5	  79
   5	  80
   5	  83
   5	  84
   5	  85
   5	  87
   5	  89
   5	  90
   5	  92
   5	 104
   5	 105
   5	 107
   5	 108
   5	 110
   5	 113
   5	 118
   6	   8
   6	  10
   6	  18
   6	  25
   6	  26
   6	  28
   6	  29
   6	  30
   6	  31
   6	  32
   6	  38
   6	  41
   6	  42
   6	  47
   6	  48
   6	  53
   6	  57
   6	  58
   6	  60
   6	  66
   6	  71
   6	  74
   6	  82
   6	  83
   6	  86
   6	  90
   6	  92
   6	  93
   6	  94
   6	  96
   6	  97
   6	  99
   6	 100
   6	 105
   6	 106
   6	 109
   6	 111
   6	 114
   6	 115
   6	 117
   6	 119
   7	   8
   7	   9
   7	  11
   7	  13
   7	  15
   7	  18
   7	  19
   7	  20
   7	  23
   7	  27
   7	  32
   7	  33
   7	  34
   7	  35
   7	  41
   7	  43
   7	  46
   7	  52
   7	  53
   7	  54
   7	  56
   7	  62
   7	  63
   7	  65
   7	  66
   7	  67
   7	  68
   7	  71
   7	  73
   7	  75
   7	  80
   7	  86
   7	  92
   7	  93
   7	  94
   7	  95
   7	  98
   7	 100
   7	 101
   7	 109
   7	 111
   7	 112
   7	 114
   7	 115
   7	 118
   8	   9
   8	  14
   8	  16
   8	  18
   8	  20
   8	  21
   8	  22
   8	  24
   8	  25
   8	  31
   8	  37
   8	  41
   8	  45
   8	  48
   8	  53
   8	  55
   8	  59
   8	  62
   8	  68
   8	  69
   8	  71
   8	  74
   8	  77
   8	  78
   8	  82
   8	  85
   8	  87
   8	  88
   8	  90
   8	  91
   8	  92
   8	  93
   8	  95
   8	 100
   8	 103
   8	 105
   8	 110
   8	 113
   8	 114
   8	 119
   9	  11
   9	  13
   9	  14
   9	  18
   9	  19
   9	  22
   9	  24
   9	  25
   9	  27
   9	  28
   9	  29
   9	  32
   9	  33
   9	  34
   9	  35
   9	  36
   9	  38
   9	  41
   9	  43
   9	  44
   9	  45
   9	  52
   9	  54
   9	  57
   9	  58
   9	  62
   9	  70
   9	  71
   9	  72
   9	  73
   9	  77
   9	  78
   9	  80
   9	  82
   9	  84
   9	  87
   9	  88
   9	  89
   9	  91
   9	  92
   9	  93
   9	  94
   9	  96
   9	 100
   9	 101
   9	 102
   9	 103
   9	 105
   9	 107
   9	 110
   9	 112
  10	  11
  10	  14
  10	  16
  10	  17
  10	  18
  10	  20
  10	  26
  10	  29
  10	  33
  10	  34
  10	  35
  10	  36
  10	  42
  10	  46
  10	  47
  10	  52
  10	  53
  10	  55
  10	  58
  10	  59
  10	  66
  10	  73
  10	  74
  10	  76
  10	  77
  10	  78
  10	  79
  10	  80
  10	  82
  10	  87
  10	  89
  10	  91
  10	  92
  10	 101
  10	 103
  10	 109
  10	 112
  10	 115
  10	 118
  10	 119
  11	  12
  11	  13
  11	  14
  11	  18
  11	  19
  11	  21
  11	  24
  11	  28
  11	  32
  11	  35
  11	  36
  11	  37
  11	  38
  11	  39
  11	  41
  11	  42
  11	  44
  11	  45
  11	  48
  11	  49
  11	  51
  11	  53
  11	  54
  11	  57
  11	  58
  11	  59
  11	  61
  11	  64
  11	  66
  11	  67
  11	  68
  11	  70
  11	  71
  11	  72
  11	  73
  11	  78
  11	  79
  11	  80
  11	  82
  11	  83
  11	  84
  11	  87
  11	  88
  11	  89
  11	  90
  11	  92
  11	  95
  11	  99
  11	 100
  11	 102
  11	 111
  11	 112
  11	 114
  11	 117
  12	  14
  12	  17
  12	  18
  12	  21
  12	  23
  12	  24
  12	  27
  12	  30
  12	  32
  12	  36
  12	  37
  12	  42
  12	  43
  12	  44
  12	  46
  12	  48
  12	  50
  12	  54
  12	  56
  12	  59
  12	  60
  12	  65
  12	  67
  12	  75
  12	  76
  12	  77
  12	  78
  12	  80
  12	  81
  12	  85
  12	  86
  12	  89
  12	  90
  12	  92
  12	  94
  12	  95
  12	  98
  12	 100
  12	 101
  12	 104
  12	 112
  12	 113
  12	 115
  12	 116
  13	  15
  13	  22
  13	  24
  13	  25
  13	  26
  13	  29
  13	  36
  13	  38
  13	  39
  13	  46
  13	  50
  13	  53
  13	  56
  13	  60
  13	  61
  13	  62
  13	  64
  13	  65
  13	  67
  13	  70
  13	  71
  13	  72
  13	  77
  13	  78
  13	  79
  13	  81
  13	  82
  13	  83
  13	  84
  13	  86
  13	  91
  13	  92
  13	  97
  13	 105
  13	 111
  13	 112
  13	 114
  13	 115
  13	 118
  13	 119
  14	  18
  14	  20
  14	  21
  14	  23
  14	  24
  14	  27
  14	  29
  14	  30
  14	  31
  14	  35
  14	  37
  14	  38
  14	  41
  14	  43
  14	  44
  14	  51
  14	  53
  14	  54
  14	  55
  14	  63
  14	  66
  14	  68
  14	  69
  14	  74
  14	  77
  14	  78
  14	  81
  14	  84
  14	  91
  14	  92
  14	  95
  14	  97
  14	 103
  14	 104
  14	 106
  14	 107
  14	 108
  14	 112
  14	 116
  14	 117
  15	  17
  15	  18
  15	  19
  15	  21
  15	  22
  15	  26
  15	  27
  15	  28
  15	  29
  15	  30
  15	  32
  15	  36
  15	  41
  15	  46
  15	  48
  15	  49
  15	  51
  15	  53
  15	  55
  15	  56
  15	  63
  15	  66
  15	  68
  15	  69
  15	  71
  15	  72
  15	  75
  15	  82
  15	  83
  15	  85
  15	  86
  15	  87
  15	  91
  15	  92
  15	  95
  15	  96
  15	  98
  15	  99
  15	 100
  15	 105
  15	 107
  15	 108
  15	 111
  15	 113
  15	 116
  15	 118
  15	 119
  16	  18
  16	  20
  16	  23
  16	  27
  16	  28
  16	  29
  16	  30
  16	  31
  16	  37
  16	  38
  16	  39
  16	  40
  16	  44
  16	  45
  16	  49
  16	  51
  16	  52
  16	  53
  16	  58
  16	  62
  16	  65
  16	  69
  16	  72
  16	  74
  16	  76
  16	  78
  16	  79
  16	  85
  16	  87
  16	  95
  16	  99
  16	 107
  16	 109
  16	 111
  16	 112
  16	 113
  16	 117
  17	  19
  17	  20
  17	  22
  17	  24
  17	  28
  17	  29
  17	  33
  17	  38
  17	  40
  17	  47
  17	  50
  17	  53
  17	  54
  17	  57
  17	  59
  17	  60
  17	  61
  17	  64
  17	  67
  17	  68
  17	  82
  17	  84
  17	  85
  17	  86
  17	  87
  17	  90
  17	  93
  17	  98
  17	 100
  17	 103
  17	 105
  17	 108
  17	 109
  17	 114
  17	 115
  17	 116
  17	 117
  18	  19
  18	  20
  18	  27
  18	  29
  18	  35
  18	  37
  18	  39
  18	  44
  18	  45
  18	  47
  18	  51
  18	  53
  18	  54
  18	  57
  18	  59
  18	  60
  18	  63
  18	  64
  18	  72
  18	  73
  18	  74
  18	  75
  18	  80
  18	  83
  18	  86
  18	  87
  18	  94
  18	  96
  18	  99
  18	 102
  18	 107
  18	 109
  18	 110
  18	 119
  19	  24
  19	  27
  19	  29
  19	  30
  19	  31
  19	  32
  19	  35
  19	  37
  19	  39
  19	  40
  19	  41
  19	  42
  19	  44
  19	  48
  19	  49
  19	  50
  19	  51
  19	  53
  19	  55
  19	  59
  19	  61
  19	  62
  19	  63
  19	  64
  19	  65
  19	  69
  19	  70
  19	  75
  19	  76
  19	  79
  19	  80
  19	  92
  19	  94
  19	  95
  19	 101
  19	 105
  19	 106
  19	 111
  19	 112
  19	 119
  20	  24
  20	  28
  20	  29
  20	  30
  20	  32
  20	  33
  20	  34
  20	  36
  20	  38
  20	  40
  20	  43
  20	  45
  20	  46
  20	  48
  20	  54
  20	  60
  20	  66
  20	  68
  20	  69
  20	  71
  20	  77
  20	  79
  20	  80
  20	  81
  20	  83
  20	  84
  20	  87
  20	  91
  20	  94
  20	  95
  20	  96
  20	  97
  20	  98
  20	 100
  20	 102
  20	 106
  20	 107
  20	 113
  20	 116
  20	 119
  21	  24
  21	  26
  21	  27
  21	  30
  21	  32
  21	  42
  21	  43
  21	  46
  21	  47
  21	  48
  21	  53
  21	  55
  21	  57
  21	  59
  21	  61
  21	  63
  21	  65
  21	  70
  21	  75
  21	  79
  21	  80
  21	  81
  21	  88
  21	  89
  21	  92
  21	  95
  21	  97
  21	 100
  21	 101
  21	 103
  21	 104
  21	 108
  21	 110
  21	 114
  21	 117
  22	  27
  22	  28
  22	  31
  22	  33
  22	  40
  22	  43
  22	  44
  22	  45
  22	  46
  22	  47
  22	  48
  22	  49
  22	  51
  22	  56
  22	  58
  22	  59
  22	  62
  22	  63
  22	  65
  22	  68
  22	  69
  22	  72
  22	  73
  22	  76
  22	  77
  22	  78
  22	  80
  22	  81
  22	  83
  22	  85
  22	  89
  22	  91
  22	  94
  22	  96
  22	 104
  22	 106
  22	 108
  22	 111
  22	 112
  22	 115
  22	 116
  22	 118
  23	  24
  23	  31
  23	  39
  23	  46
  23	  47
  23	  48
  23	  49
  23	  51
  23	  55
  23	  56
  23	  57
  23	  60
  23	  61
  23	  62
  23	  63
  23	  65
  23	  69
  23	  76
  23	  81
  23	  82
  23	  86
  23	  93
  23	  94
  23	  96
  23	  97
  23	  98
  23	 100
  23	 102
  23	 104
  23	 105
  23	 107
  23	 108
  23	 110
  23	 114
  24	  30
  24	  32
  24	  34
  24	  37
  24	  38
  24	  39
  24	  43
  24	  45
  24	  47
  24	  49
  24	  51
  24	  53
  24	  57
  24	  58
  24	  60
  24	  66
  24	  72
  24	  74
  24	  79
  24	  80
  24	  81
  24	  82
  24	  87
  24	  88
  24	  90
  24	  91
  24	  92
  24	  93
  24	  95
  24	  97
  24	  98
  24	 100
  24	 102
  24	 106
  24	 107
  24	 109
  24	 111
  24	 112
  24	 113
  24	 114
  24	 116
  25	  28
  25	  29
  25	  39
  25	  42
  25	  45
  25	  51
  25	  54
  25	  55
  25	  56
  25	  57
  25	  58
  25	  60
  25	  61
  25	  62
  25	  63
  25	  66
  25	  68
  25	  69
  25	  71
  25	  72
  25	  77
  25	  79
  25	  80
  25	  86
  25	  87
  25	  88
  25	  89
  25	  92
  25	  95
  25	  96
  25	  97
  25	  98
  25	 100
  25	 112
  25	 115
  25	 116
  25	 119
  26	  27
  26	  30
  26	  31
  26	  32
  26	  33
  26	  42
  26	  43
  26	  46
  26	  47
  26	  48
  26	  49
  26	  55
  26	  59
  26	  60
  26	  63
  26	  65
  26	  67
  26	  69
  26	  72
  26	  74
  26	  79
  26	  81
  26	  82
  26	  86
  26	  87
  26	  88
  26	  89
  26	  90
  26	  92
  26	  94
  26	  96
  26	  98
  26	  99
  26	 100
  26	 104
  26	 106
  26	 114
  26	 116
  26	 117
  27	  28
  27	  30
  27	  32
  27	  34
  27	  37
  27	  38
  27	  39
  27	  41
  27	  42
  27	  44
  27	  47
  27	  48
  27	  51
  27	  52
  27	  56
  27	  58
  27	  59
  27	  62
  27	  66
  27	  76
  27	  77
  27	  78
  27	  81
  27	  83
  27	  84
  27	  85
  27	  90
  27	  95
  27	  97
  27	  98
  27	 101
  27	 103
  27	 105
  27	 107
  27	 108
  27	 112
  27	 115
  28	  29
  28	  32
  28	  34
  28	  43
  28	  45
  28	  46
  28	  47
  28	  49
  28	  52
  28	  53
  28	  57
  28	  60
  28	  62
  28	  64
  28	  65
  28	  66
  28	  70
  28	  74
  28	  75
  28	  80
  28	  81
  28	  82
  28	  83
  28	  84
  28	  88
  28	  90
  28	  91
  28	  92
  28	  93
  28	  95
  28	  96
  28	  98
  28	 101
  28	 102
  28	 103
  28	 104
  28	 105
  28	 106
  28	 108
  28	 110
  28	 111
  28	 115
  28	 118
  28	 119
  29	  30
  29	  31
  29	  32
  29	  33
  29	  34
  29	  35
  29	  36
  29	  41
  29	  42
  29	  44
  29	  46
  29	  48
  29	  49
  29	  50
  29	  53
  29	  55
  29	  56
  29	  58
  29	  59
  29	  63
  29	  64
  29	  66
  29	  67
  29	  69
  29	  72
  29	  73
  29	  77
  29	  78
  29	  81
  29	  85
  29	  91
  29	  95
  29	  97
  29	 100
  29	 101
  29	 105
  29	 110
  29	 111
  29	 112
  29	 115
  29	 117
  30	  33
  30	  34
  30	  37
  30	  38
  30	  41
  30	  42
  30	  45
  30	  49
  30	  54
  30	  55
  30	  58
  30	  59
  30	  63
  30	  64
  30	  67
  30	  68
  30	  73
  30	  76
  30	  77
  30	  79
  30	  80
  30	  86
  30	  87
  30	  88
  30	  89
  30	  91
  30	  92
  30	  94
  30	  96
  30	  97
  30	 100
  30	 103
  30	 105
  30	 110
  30	 112
  30	 115
  30	 116
  31	  32
  31	  33
  31	  36
  31	  38
  31	  39
  31	  41
  31	  42
  31	  44
  31	  45
  31	  46
  31	  52
  31	  54
  31	  56
  31	  57
  31	  58
  31	  63
  31	  65
  31	  67
  31	  68
  31	  71
  31	  74
  31	  77
  31	  78
  31	  80
  31	  81
  31	  83
  31	  85
  31	  86
  31	  89
  31	  90
  31	  92
  31	  94
  31	  95
  31	 102
  31	 103
  31	 104
  31	 107
  31	 109
  31	 110
  31	 113
  31	 114
  31	 115
  31	 118
  32	  34
  32	  40
  32	  41
  32	  47
  32	  48
  32	  49
  32	  55
  32	  58
  32	  60
  32	  63
  32	  64
  32	  68
  32	  69
  32	  77
  32	  80
  32	  81
  32	  82
  32	  87
  32	  90
  32	  95
  32	 104
  32	 112
  32	 114
  32	 115
  32	 119
  33	  37
  33	  38
  33	  39
  33	  40
  33	  49
  33	  52
  33	  53
  33	  60
  33	  61
  33	  62
  33	  63
  33	  64
  33	  65
  33	  66
  33	  69
  33	  71
  33	  72
  33	  74
  33	  79
  33	  80
  33	  86
  33	  89
  33	  91
  33	  92
  33	  95
  33	  96
  33	  99
  33	 103
  33	 106
  33	 107
  33	 108
  33	 109
  33	 119
  34	  35
  34	  37
  34	  39
  34	  40
  34	  47
  34	  53
  34	  55
  34	  58
  34	  60
  34	  61
  34	  67
  34	  69
  34	  70
  34	  78
  34	  82
  34	  83
  34	  86
  34	  88
  34	  92
  34	  96
  34	  97
  34	 101
  34	 102
  34	 104
  34	 108
  34	 109
  34	 112
  34	 113
  35	  36
  35	  39
  35	  40
  35	  45
  35	  48
  35	  52
  35	  53
  35	  54
  35	  58
  35	  61
  35	  62
  35	  66
  35	  67
  35	  68
  35	  69
  35	  71
  35	  72
  35	  73
  35	  74
  35	  77
  35	  78
  35	  79
  35	  81
  35	  87
  35	  91
  35	  96
  35	 106
  35	 109
  35	 111
  35	 115
  35	 117
  35	 118
  35	 119
  36	  38
  36	  41
  36	  43
  36	  45
  36	  46
  36	  48
  36	  49
  36	  54
  36	  56
  36	  57
  36	  59
  36	  65
  36	  66
  36	  81
  36	  85
  36	  86
  36	  87
  36	  90
  36	  91
  36	  92
  36	  97
  36	  98
  36	 102
  36	 105
  36	 107
  36	 108
  36	 109
  36	 110
  36	 112
  36	 113
  37	  38
  37	  39
  37	  43
  37	  45
  37	  47
  37	  50
  37	  52
  37	  56
  37	  58
  37	  59
  37	  60
  37	  63
  37	  65
  37	  73
  37	  76
  37	  82
  37	  83
  37	  84
  37	  85
  37	  87
  37	  90
  37	  95
  37	  97
  37	  98
  37	  99
  37	 101
  37	 103
  37	 112
  37	 117
  37	 118
  37	 119
  38	  39
  38	  41
  38	  43
  38	  50
  38	  51
  38	  55
  38	  57
  38	  59
  38	  62
  38	  64
  38	  65
  38	  66
  38	  69
  38	  70
  38	  75
  38	  78
  38	  80
  38	  84
  38	  86
  38	  89
  38	  90
  38	  92
  38	  94
  38	  95
  38	  97
  38	  98
  38	  99
  38	 101
  38	 103
  38	 105
  38	 109
  38	 116
  38	 118
  39	  40
  39	  44
  39	  45
  39	  48
  39	  53
  39	  54
  39	  56
  39	  57
  39	  58
  39	  60
  39	  68
  39	  69
  39	  70
  39	  75
  39	  76
  39	  80
  39	  84
  39	  85
  39	  87
  39	  91
  39	  92
  39	  95
  39	  98
  39	  99
  39	 100
  39	 103
  39	 105
  39	 106
  39	 108
  39	 118
  40	  44
  40	  46
  40	  48
  40	  50
  40	  52
  40	  54
  40	  56
  40	  62
  40	  76
  40	  78
  40	  81
  40	  84
  40	  85
  40	  91
  40	  96
  40	  97
  40	 101
  40	 104
  40	 105
  40	 106
  40	 107
  40	 109
  40	 110
  40	 114
  40	 116
  41	  45
  41	  48
  41	  49
  41	  52
  41	  53
  41	  54
  41	  58
  41	  61
  41	  62
  41	  63
  41	  65
  41	  68
  41	  72
  41	  73
  41	  74
  41	  76
  41	  78
  41	  80
  41	  81
  41	  83
  41	  84
  41	  85
  41	  86
  41	  87
  41	  91
  41	  96
  41	  98
  41	 101
  41	 104
  41	 107
  41	 112
  41	 113
  41	 114
  41	 115
  41	 118
  41	 119
  42	  45
  42	  46
  42	  47
  42	  48
  42	  50
  42	  52
  42	  54
  42	  56
  42	  61
  42	  63
  42	  64
  42	  73
  42	  75
  42	  76
  42	  77
  42	  79
  42	  81
  42	  85
  42	  90
  42	  94
  42	  95
  42	 100
  42	 102
  42	 103
  42	 104
  42	 107
  42	 109
  42	 112
  42	 113
  42	 116
  42	 117
  42	 118
  43	  47
  43	  48
  43	  49
  43	  50
  43	  51
  43	  54
  43	  58
  43	  63
  43	  65
  43	  70
  43	  71
  43	  76
  43	  79
  43	  81
  43	  84
  43	  85
  43	  86
  43	  89
  43	  92
  43	  94
  43	  95
  43	  97
  43	 102
  43	 112
  43	 117
  44	  45
  44	  53
  44	  56
  44	  59
  44	  60
  44	  62
  44	  65
  44	  67
  44	  69
  44	  70
  44	  77
  44	  78
  44	  81
  44	  83
  44	  85
  44	  87
  44	  89
  44	  90
  44	  91
  44	  92
  44	  97
  44	  99
  44	 100
  44	 103
  44	 105
  44	 106
  44	 108
  44	 109
  44	 110
  44	 111
  45	  46
  45	  47
  45	  49
  45	  55
  45	  56
  45	  61
  45	  64
  45	  66
  45	  67
  45	  69
  45	  70
  45	  73
  45	  74
  45	  75
  45	  76
  45	  82
  45	  83
  45	  86
  45	  91
  45	  92
  45	  96
  45	  99
  45	 103
  45	 106
  45	 109
  45	 110
  45	 112
  45	 113
  45	 116
  45	 117
  45	 118
  46	  48
  46	  51
  46	  52
  46	  53
  46	  54
  46	  55
  46	  57
  46	  59
  46	  60
  46	  61
  46	  62
  46	  63
  46	  64
  46	  67
  46	  69
  46	  75
  46	  80
  46	  82
  46	  84
  46	  86
  46	  88
  46	  89
  46	  90
  46	  92
  46	  93
  46	  94
  46	  95
  46	 100
  46	 103
  46	 105
  46	 107
  46	 109
  46	 112
  46	 114
  46	 116
  46	 117
  47	  50
  47	  51
  47	  54
  47	  55
  47	  58
  47	  60
  47	  66
  47	  67
  47	  68
  47	  74
  47	  75
  47	  77
  47	  78
  47	  83
  47	  84
  47	  85
  47	  87
  47	  88
  47	  89
  47	  91
  47	  94
  47	  95
  47	  99
  47	 104
  47	 105
  47	 108
  47	 109
  47	 110
  47	 115
  47	 117
  47	 119
  48	  49
  48	  50
  48	  54
  48	  55
  48	  58
  48	  66
  48	  68
  48	  69
  48	  70
  48	  71
  48	  72
  48	  75
  48	  81
  48	  82
  48	  83
  48	  84
  48	  87
  48	  91
  48	  99
  48	 102
  48	 106
  48	 107
  48	 108
  48	 111
  48	 113
  48	 114
  48	 116
  48	 117
  48	 119
  49	  51
  49	  52
  49	  56
  49	  57
  49	  61
  49	  64
  49	  66
  49	  68
  49	  71
  49	  73
  49	  77
  49	  79
  49	  82
  49	  83
  49	  86
  49	  87
  49	  92
  49	  93
  49	  94
  49	  96
  49	  97
  49	  98
  49	  99
  49	 100
  49	 101
  49	 103
  49	 107
  49	 109
  49	 111
  49	 112
  49	 113
  49	 114
  49	 115
  49	 116
  49	 117
  50	  52
  50	  53
  50	  55
  50	  57
  50	  58
  50	  62
  50	  64
  50	  67
  50	  69
  50	  74
  50	  80
  50	  86
  50	  88
  50	  89
  50	  94
  50	  96
  50	  98
  50	  99
  50	 101
  50	 106
  50	 109
  51	  53
  51	  54
  51	  56
  51	  58
  51	  61
  51	  64
  51	  73
  51	  74
  51	  75
  51	  78
  51	  79
  51	  81
  51	  82
  51	  83
  51	  86
  51	  93
  51	  94
  51	  95
  51	 101
  51	 102
  51	 103
  51	 107
  51	 108
  51	 115
  51	 116
  52	  58
  52	  59
  52	  64
  52	  69
  52	  71
  52	  73
  52	  82
  52	  87
  52	  90
  52	  94
  52	  99
  52	 101
  52	 102
  52	 104
  52	 106
  52	 107
  52	 109
  52	 110
  52	 113
  52	 114
  52	 118
  52	 119
  53	  55
  53	  59
  53	  60
  53	  61
  53	  62
  53	  63
  53	  67
  53	  68
  53	  71
  53	  72
  53	  74
  53	  77
  53	  79
  53	  80
  53	  84
  53	  88
  53	  91
  53	  94
  53	  98
  53	  99
  53	 102
  53	 104
  53	 105
  53	 107
  53	 110
  53	 112
  53	 118
  54	  55
  54	  57
  54	  60
  54	  69
  54	  71
  54	  75
  54	  81
  54	  82
  54	  85
  54	  87
  54	  88
  54	  92
  54	  94
  54	  95
  54	  99
  54	 101
  54	 102
  54	 104
  54	 110
  54	 114
  54	 117
  54	 119
  55	  56
  55	  60
  55	  66
  55	  71
  55	  72
  55	  73
  55	  77
  55	  78
  55	  79
  55	  81
  55	  82
  55	  83
  55	  85
  55	  87
  55	  89
  55	  96
  55	 100
  55	 103
  55	 104
  55	 110
  55	 111
  55	 112
  55	 114
  55	 117
  55	 118
  55	 119
  56	  58
  56	  59
  56	  60
  56	  65
  56	  70
  56	  73
  56	  74
  56	  77
  56	  79
  56	  81
  56	  87
  56	  89
  56	  91
  56	  92
  56	  94
  56	  95
  56	  96
  56	  97
  56	 103
  56	 104
  56	 106
  56	 114
  56	 115
  56	 116
  56	 117
  56	 118
  56	 119
  57	  59
  57	  61
  57	  63
  57	  65
  57	  68
  57	  71
  57	  73
  57	  74
  57	  77
  57	  78
  57	  84
  57	  86
  57	  90
  57	  92
  57	  93
  57	  94
  57	  97
  57	 100
  57	 101
  57	 102
  57	 103
  57	 105
  57	 108
  57	 109
  57	 113
  57	 116
  57	 117
  57	 118
  57	 119
  58	  59
  58	  65
  58	  66
  58	  68
  58	  69
  58	  70
  58	  74
  58	  79
  58	  80
  58	  81
  58	  84
  58	  85
  58	  86
  58	  87
  58	  88
  58	  89
  58	  90
  58	  94
  58	  97
  58	 100
  58	 101
  58	 102
  58	 103
  58	 107
  58	 108
  58	 109
  58	 110
  58	 112
  58	 114
  58	 119
  59	  63
  59	  66
  59	  70
  59	  74
  59	  75
  59	  76
  59	  77
  59	  78
  59	  81
  59	  88
  59	  89
  59	  97
  59	  98
  59	  99
  59	 102
  59	 106
  59	 110
  59	 112
  59	 117
  60	  62
  60	  67
  60	  68
  60	  69
  60	  73
  60	  75
  60	  76
  60	  81
  60	  83
  60	  85
  60	  88
  60	  90
  60	  92
  60	  93
  60	  94
  60	  95
  60	  96
  60	 102
  60	 104
  60	 106
  60	 108
  60	 111
  60	 112
  60	 113
  60	 117
  60	 118
  61	  62
  61	  65
  61	  75
  61	  78
  61	  79
  61	  90
  61	  91
  61	  94
  61	  95
  61	  97
  61	 101
  61	 102
  61	 104
  61	 110
  61	 115
  61	 116
  61	 117
  62	  66
  62	  67
  62	  73
  62	  74
  62	  78
  62	  79
  62	  80
  62	  85
  62	  86
  62	  88
  62	  90
  62	  92
  62	  97
  62	 103
  62	 104
  62	 108
  62	 114
  62	 119
  63	  64
  63	  66
  63	  67
  63	  69
  63	  71
  63	  73
  63	  74
  63	  75
  63	  76
  63	  81
  63	  87
  63	  88
  63	  92
  63	  93
  63	  94
  63	 101
  63	 102
  63	 103
  63	 104
  63	 108
  63	 110
  63	 112
  63	 115
  63	 116
  63	 118
  64	  66
  64	  71
  64	  72
  64	  75
  64	  76
  64	  77
  64	  79
  64	  80
  64	  83
  64	  84
  64	  86
  64	  87
  64	  91
  64	  95
  64	  98
  64	 101
  64	 102
  64	 105
  64	 106
  64	 109
  64	 111
  64	 112
  64	 113
  64	 115
  64	 119
  65	  66
  65	  67
  65	  69
  65	  71
  65	  72
  65	  75
  65	  79
  65	  80
  65	  83
  65	  84
  65	  87
  65	  88
  65	  94
  65	  95
  65	  96
  65	  97
  65	  99
  65	 101
  65	 104
  65	 105
  65	 109
  65	 112
  65	 113
  65	 117
  66	  67
  66	  72
  66	  78
  66	  79
  66	  80
  66	  82
  66	  83
  66	  84
  66	  88
  66	  89
  66	  96
  66	 101
  66	 106
  66	 107
  66	 114
  66	 115
  66	 116
  66	 118
  67	  68
  67	  76
  67	  77
  67	  78
  67	  79
  67	  81
  67	  83
  67	  84
  67	  85
  67	  86
  67	  87
  67	  88
  67	  89
  67	  91
  67	  97
  67	  99
  67	 108
  67	 109
  67	 112
  67	 113
  67	 114
  67	 115
  67	 117
  67	 118
  68	  73
  68	  75
  68	  82
  68	  90
  68	  91
  68	  94
  68	  97
  68	  98
  68	  99
  68	 100
  68	 104
  68	 109
  68	 111
  68	 115
  68	 116
  68	 117
  68	 118
  68	 119
  69	  72
  69	  74
  69	  76
  69	  77
  69	  80
  69	  82
  69	  83
  69	  85
  69	  88
  69	  94
  69	  98
  69	  99
  69	 100
  69	 101
  69	 103
  69	 104
  69	 106
  69	 110
  69	 113
  69	 114
  69	 115
  69	 118
  69	 119
  70	  82
  70	  83
  70	  84
  70	  90
  70	  95
  70	  96
  70	  97
  70	  99
  70	 100
  70	 102
  70	 104
  70	 105
  70	 106
  70	 110
  70	 111
  70	 112
  70	 113
  70	 118
  71	  73
  71	  74
  71	  77
  71	  81
  71	  82
  71	  83
  71	  84
  71	  85
  71	  87
  71	  88
  71	  94
  71	  98
  71	  99
  71	 100
  71	 105
  71	 107
  71	 112
  71	 113
  71	 117
  71	 119
  72	  74
  72	  75
  72	  76
  72	  77
  72	  81
  72	  83
  72	  91
  72	  92
  72	  93
  72	  95
  72	  96
  72	  98
  72	 100
  72	 101
  72	 102
  72	 103
  72	 108
  72	 110
  72	 113
  72	 117
  72	 118
  72	 119
  73	  75
  73	  79
  73	  80
  73	  82
  73	  84
  73	  85
  73	  86
  73	  87
  73	  88
  73	  91
  73	  93
  73	  97
  73	  98
  73	 101
  73	 102
  73	 106
  73	 107
  73	 108
  73	 111
  73	 114
  73	 115
  73	 116
  73	 119
  74	  77
  74	  78
  74	  81
  74	  82
  74	  83
  74	  90
  74	  94
  74	  99
  74	 100
  74	 103
  74	 104
  74	 106
  74	 108
  74	 110
  74	 111
  74	 112
  74	 115
  74	 117
  74	 118
  74	 119
  75	  76
  75	  77
  75	  78
  75	  80
  75	  81
  75	  82
  75	  88
  75	  89
  75	  92
  75	  93
  75	  94
  75	  96
  75	  99
  75	 102
  75	 108
  75	 111
  75	 112
  75	 114
  75	 117
  75	 118
  76	  78
  76	  80
  76	  81
  76	  82
  76	  83
  76	  84
  76	  85
  76	  88
  76	  89
  76	  90
  76	  92
  76	  96
  76	 100
  76	 101
  76	 106
  76	 107
  76	 111
  76	 112
  76	 113
  76	 115
  76	 118
  77	  79
  77	  80
  77	  81
  77	  84
  77	  85
  77	  86
  77	  87
  77	  89
  77	  90
  77	  92
  77	  93
  77	  95
  77	  97
  77	 100
  77	 105
  77	 106
  77	 109
  77	 110
  77	 114
  77	 115
  77	 117
  78	  79
  78	  80
  78	  83
  78	  84
  78	  85
  78	  94
  78	  95
  78	  96
  78	  97
  78	  98
  78	  99
  78	 100
  78	 103
  78	 106
  78	 108
  78	 110
  78	 111
  78	 112
  78	 114
  78	 115
  78	 117
  79	  80
  79	  84
  79	  85
  79	  86
  79	  88
  79	  89
  79	  91
  79	  92
  79	  93
  79	  96
  79	  97
  79	 102
  79	 104
  79	 105
  79	 106
  79	 108
  79	 112
  79	 114
  79	 117
  80	  84
  80	  86
  80	  89
  80	  93
  80	  95
  80	  96
  80	  98
  80	 100
  80	 105
  80	 107
  80	 110
  80	 113
  80	 114
  80	 116
  81	  90
  81	  92
  81	  93
  81	  94
  81	  95
  81	  99
  81	 101
  81	 102
  81	 106
  81	 111
  81	 112
  81	 115
  81	 116
  82	  84
  82	  87
  82	  88
  82	  89
  82	  90
  82	  91
  82	  92
  82	  94
  82	  95
  82	  99
  82	 102
  82	 106
  82	 108
  82	 110
  82	 111
  82	 114
  82	 115
  82	 119
  83	  89
  83	  90
  83	  92
  83	  93
  83	 100
  83	 106
  83	 107
  83	 110
  84	  85
  84	  86
  84	  87
  84	  90
  84	  91
  84	  94
  84	  96
  84	  97
  84	  99
  84	 102
  84	 103
  84	 107
  84	 108
  84	 110
  84	 111
  84	 112
  84	 113
  84	 114
  84	 116
  84	 117
  84	 118
  85	  87
  85	  89
  85	  91
  85	  94
  85	  95
  85	  98
  85	 102
  85	 104
  85	 105
  85	 106
  85	 108
  85	 112
  85	 114
  85	 116
  85	 118
  86	  87
  86	  91
  86	  92
  86	  93
  86	  95
  86	  96
  86	  99
  86	 100
  86	 101
  86	 102
  86	 103
  86	 108
  86	 109
  86	 112
  86	 114
  86	 117
  87	  90
  87	  94
  87	  98
  87	  99
  87	 100
  87	 101
  87	 102
  87	 103
  87	 106
  87	 109
  87	 112
  87	 114
  87	 115
  87	 118
  88	  89
  88	  90
  88	  93
  88	  94
  88	 100
  88	 102
  88	 106
  88	 107
  88	 113
  88	 114
  88	 118
  89	  90
  89	  93
  89	  95
  89	  97
  89	  99
  89	 100
  89	 102
  89	 105
  89	 106
  89	 109
  89	 110
  89	 115
  89	 116
  89	 117
  89	 118
  90	  94
  90	  95
  90	  96
  90	  98
  90	 101
  90	 102
  90	 103
  90	 106
  90	 108
  90	 112
  90	 115
  91	  93
  91	  96
  91	 105
  91	 106
  91	 108
  91	 111
  91	 112
  91	 113
  91	 117
  91	 119
  92	 106
  92	 110
  92	 111
  92	 113
  92	 114
  92	 116
  92	 117
  93	  94
  93	  95
  93	  96
  93	  98
  93	  99
  93	 102
  93	 104
  93	 105
  93	 117
  94	  97
  94	  98
  94	  99
  94	 101
  94	 109
  94	 110
  94	 116
  94	 117
  95	  97
  95	  98
  95	 101
  95	 102
  95	 104
  95	 106
  95	 111
  95	 112
  95	 113
  95	 116
  96	  97
  96	  98
  96	 100
  96	 101
  96	 103
  96	 104
  96	 106
  96	 109
  96	 110
  96	 111
  97	  99
  97	 106
  97	 110
  97	 111
  97	 112
  97	 114
  97	 118
  98	 104
  98	 105
  98	 109
  98	 115
  98	 116
  98	 118
  98	 119
  99	 102
  99	 103
  99	 105
  99	 106
  99	 108
  99	 110
  99	 111
  99	 112
  99	 113
  99	 115
  99	 118
 100	 101
 100	 102
 100	 104
 100	 105
 100	 108
 100	 109
 100	 112
 100	 113
 100	 117
 100	 118
 101	 102
 101	 103
 101	 104
 101	 106
 101	 107
 101	 111
 101	 112
 101	 117
 101	 118
 102	 104
 102	 113
 102	 114
 102	 118
 103	 107
 103	 113
 103	 116
 103	 117
 103	 118
 104	 106
 104	 107
 104	 108
 104	 113
 104	 116
 104	 118
 104	 119
 105	 108
 105	 109
 105	 113
 105	 116
 105	 118
 106	 107
 106	 113
 106	 114
 106	 116
 106	 117
 107	 108
 107	 109
 107	 111
 107	 113
 107	 116
 108	 109
 108	 111
 108	 113
 109	 112
 109	 119
 110	 114
 110	 117
 110	 118
 110	 119
 112	 115
 113	 114
 113	 115
 113	 116
 113	 117
 114	 115
 114	 119
 115	 117
 115	 118
 115	 119
 116	 117
 116	 119
;
